
Gurobi 13.0.2 (win64) logging started Thu Jul 23 16:58:25 2026

Set parameter LogFile to value "E:\codes\ExactEBRP\results\gf_gurobi_performance_recovery_round29\runs\stage2__moderate_seed5301__c3_replica__300s\external\native_logs\R.0.0.1.0.1.1.1.1.0.1_terminal_mip.gurobi.log"
Gurobi Optimizer version 13.0.2 build v13.0.2rc1 (win64 - Windows 10.0 (19045.2))

CPU model: 12th Gen Intel(R) Core(TM) i7-12700KF, instruction set [SSE2|AVX|AVX2]
Thread count: 12 physical cores, 20 logical processors, using up to 1 threads

Non-default parameters:
TimeLimit  9.7521804199999991e+01
MIPGap  0
MIPGapAbs  0
LogToConsole  0
Threads  1

Optimize a model with 11944 rows, 3386 columns and 67436 nonzeros (Min)
Model fingerprint: 0xbc83966f
Model has 21 linear objective coefficients
Variable types: 1690 continuous, 1696 integer (1496 binary)
Coefficient statistics:
  Matrix range     [9e-03, 1e+04]
  Objective range  [9e-03, 1e+00]
  Bounds range     [3e-02, 2e+02]
  RHS range        [3e-02, 5e+04]

Presolve removed 961 rows and 107 columns
Presolve time: 0.24s
Presolved: 10983 rows, 3279 columns, 75738 nonzeros
Variable types: 1629 continuous, 1650 integer (1464 binary)

Root relaxation: objective 7.999216e-02, 5373 iterations, 0.38 seconds (1.10 work units)

    Nodes    |    Current Node    |     Objective Bounds      |     Work
 Expl Unexpl |  Obj  Depth IntInf | Incumbent    BestBd   Gap | It/Node Time

     0     0    0.07999    0  293          -    0.07999      -     -    0s
     0     0 infeasible    0               - infeasible      -     -    1s

Explored 1 nodes (6847 simplex iterations) in 1.03 seconds (2.51 work units)
Thread count was 1 (of 20 available processors)

Solution count 0

Model is infeasible
Best objective -, best bound -, gap -

User-callback calls 848, time in user-callback 0.00 sec
